10	5
0	6	6	4	3	5	1	2
1	1	7
2	1	9
3	3	9	10	7
4	0
5	1	10
6	1	8
7	1	8
8	1	11
9	1	11
10	1	11
11	0
0	0	0	0	0	0	0
1	7	0	0	3	0	1
2	2	5	0	0	0	0
3	7	0	3	1	0	0
4	6	5	2	3	4	2
5	4	0	3	1	1	0
6	8	0	0	0	0	5
7	7	0	2	1	5	0
8	1	0	2	2	1	5
9	5	4	0	3	0	0
10	9	0	5	0	5	0
11	0	0	0	0	0	0
5	6	5	6	5
